Traveling Salesman Problem/TSP_generados/Aleatorio1620390982_11.tsp
NAME: Aleatorio1620390982_11.tsp
COMMENT: Randomly generated scenario
TYPE: TSP
DIMENSION: 11
EDGE_WEIGHT_TYPE: ATT
NODE_COORD_SECTION
1 25.5 31.31
2 14.62 49.07
3 33.67 35.26
4 6.61 45.58
5 13.3 11.5
6 23.38 42.88
7 32.93 35.21
8 22.19 37.55
9 26.96 5.86
10 4.38 37.46
11 19.76 21.22
