Traveling Salesman Problem/TSP_generados/Aleatorio1620390982_11.opt.tour
NAME: Aleatorio1620390982_11.opt.tour
COMMENT: Optimal solution for Aleatorio1620390982_11 (124.95436589821537)
TYPE: TOUR
DIMENSION: 11
TOUR_SECTION
1 3 7 8 6 2 4 10 5 9 11
-1
EOF
